/* Objective function */
min: - 0.0054fpdi - 0.0054fpdo + 0.05apdi + 0.05apdo + 0.0002pi + 0.0002po - 0.5fsi - 0.5fso;

apdi = 0.0 hi + 0.0 li + 5.75556 ri + 0.00053 ci + -1.06907 si + 0.0 ti + 0.03683 fTempIi + 0.05709 ami + -80.19785;
asi = 0.0 hi + -0.0 li + 0.0 ri + 0.0 ci + 0.0 si + 0.0 ti + 0.0 fTempIi + 0.00065 ami + -0.00714;
aTempOi = 0.0 hi + 0.0 li + 0.2109 ri + -0.19593 ci + -0.03229 si + 0.0 ti + 0.81127 fTempIi + -0.00302 ami + 6.29378;
fpdi = 0.0 hi + -0.0 li + 1.24067 ri + -7.80817 ci + -0.00235 si + 0.0 ti + -0.09447 fTempIi + 0.00023 ami + 40.59452;
fsi = 0.0 hi + -0.0 li + -4e-05 ri + -0.0775 ci + 1e-05 si + 0.0 ti + 0.00031 fTempIi + -0.0 ami + 0.74829;
fTempOi = 0.0 hi + 0.0 li + -0.19909 ri + 0.18841 ci + 0.03048 si + -0.0 ti + 0.27975 fTempIi + -0.00295 ami + 10.08767;
pi = 0.0 hi + 0.0 li + 52.66667 ri + 3.52222 ci + -4.54095 si + 0.0 ti + -0.0 fTempIi + -0.0 ami + 217.54127;

apdo = 0.0 ho + 0.0 lo + 5.92262 ro + 0.00423 co + -1.09433 so + 0.0 to + 0.05261 fTempIo + 0.05875 amo + -82.40023;
aso = 0.0 ho + -0.0 lo + 0.0 ro + 0.0 co + 0.0 so + 0.0 to + 0.0 fTempIo + 0.00065 amo + -0.00714;
aTempOo = 0.0 ho + 0.0 lo + -0.23172 ro + 0.20441 co + 0.03637 so + 0.0 to + 0.78314 fTempIo + 0.00321 amo + -0.60551;
fpdo = 0.0 ho + -0.0 lo + 1.21762 ro + -7.81455 co + 0.0026 so + 0.0 to + -0.09913 fTempIo + -0.00025 amo + 40.67424;
fso = 0.0 ho + -0.0 lo + 3e-05 ro + -0.07745 co + -1e-05 so + 0.0 to + 0.0003 fTempIo + 0.0 amo + 0.74829;
fTempOo = 0.0 ho + 0.0 lo + 0.21627 ro + -0.19481 co + -0.03329 so + 0.0 to + 0.29557 fTempIo + 0.00309 amo + 10.95993;
po = 0.0 ho + 0.0 lo + 49.6 ro + 3.51111 co + -3.43524 so + 0.0 to + -0.0 fTempIo + -0.0 amo + 182.51587;

/* Variable bounds */
aTempOi > 18.6;
1 =r6i + r8i + r10i + r12i + r14i;
ri =6r6i + 8r8i + 10r10i + 12r12i + 14r14i;
1 =s25i + s30i + s40i;
si =25s25i + 30s30i + 40s40i;
ti = 1;
apdi > 100;
apdi < 300;
asi > 0;
asi < 3;
aTempOi > 5;
aTempOi < 25;
fpdi > 100;
fpdi < 300;
fsi > 0;
fsi < 1.25;
fTempOi > 5;
fTempOi < 25;
pi > 0;
ri > 10;
ri < 14;
ci > 3;
ci < 60;
si > 25;
si < 60;
ti > 1;
ti < 3;
fTempIi > 5;
fTempIi < 25;

/* aTempOo < 11.4; */
1 =r6o + r8o + r10o + r12o + r14o;
ro =6r6o + 8r8o + 10r10o + 12r12o + 14r14o;
1 =s25o + s30o + s40o;
so =25s25o + 30s30o + 40s40o;
to = 2;
apdo > 100;
apdo < 300;
aso > 0;
aso < 3;
aTempOo > 5;
aTempOo < 25;
fpdo > 100;
fpdo < 300;
fso > 0;
fso < 1.25;
fTempOo > 5;
fTempOo < 25;
po > 0;
ro > 10;
ro < 14;
co > 3;
co < 60;
so > 25;
so < 60;
to > 1;
to < 3;
fTempIo > 5;
fTempIo < 25;
int hi,li,si,ti,ci,ri,ami;
int ho,lo,so,to,co,ro,amo;
bin s25i,s30i,s40i,s50i,s60i,r6i,r8i,r10i,r12i,r14i;
bin s25o,s30o,s40o,s50o,s60o,r6o,r8o,r10o,r12o,r14o;
